(set-logic ALL)
(set-option :produce-models true)
(declare-sort BoundSet 0)
(declare-sort UnboundSet 0)
(declare-fun IsInRunningClothes (BoundSet) Bool)
(declare-fun AreStretching (BoundSet) Bool)
(assert (not (=> (exists ((a BoundSet)) (and (IsInRunningClothes a) (AreStretching a))) (exists ((c BoundSet)) (AreStretching c)))))
(check-sat)
(get-model)